100
30
23
31
29
32
19
2
7
31
31
26
14
11
6
2
1
11
20
21
4
7
20
17
29
16
14
24
4
4
2
26
29
27
31
27
31
16
11
20
10
4
16
28
3
8
3
28
22
26
17
1
18
7
32
9
3
31
13
21
16
23
17
9
18
30
10
29
4
8
20
17
28
20
21
1
26
12
8
1
19
20
27
10
7
8
20
9
31
18
10
7
4
30
26
3
16
8
4
24
14
16